
Gurobi 10.0.1 (linux64) logging started Wed May 10 09:05:43 2023

Set parameter LogFile to value "logFiles/A-2L-C/A-2L-6U-15F-15V-240D-basic.log"
Gurobi Optimizer version 10.0.1 build v10.0.1rc0 (linux64)

CPU model: Intel(R) Xeon(R) Gold 5115 CPU @ 2.40GHz, instruction set [SSE2|AVX|AVX2|AVX512]
Thread count: 20 physical cores, 40 logical processors, using up to 20 threads

Optimize a model with 80646 rows, 921750 columns and 6029133 nonzeros
Model fingerprint: 0x8164e23c
Variable types: 2188 continuous, 919562 integer (919562 binary)
Coefficient statistics:
  Matrix range     [1e+00, 2e+05]
  Objective range  [4e+01, 3e+07]
  Bounds range     [1e+00, 1e+00]
  RHS range        [1e+00, 5e+06]
Presolve removed 47765 rows and 58055 columns (presolve time = 5s) ...
Presolve removed 49445 rows and 58055 columns (presolve time = 10s) ...
Presolve removed 49445 rows and 58055 columns (presolve time = 15s) ...
Presolve removed 49365 rows and 57975 columns
Presolve time: 17.50s
Presolved: 31281 rows, 863775 columns, 4699867 nonzeros
Variable types: 2219 continuous, 861556 integer (861519 binary)
Deterministic concurrent LP optimizer: primal simplex, dual simplex, and barrier
Showing barrier log only...

Root barrier log...

Ordering time: 3.35s

Barrier statistics:
 AA' NZ     : 2.246e+06
 Factor NZ  : 2.101e+07 (roughly 500 MB of memory)
 Factor Ops : 4.933e+10 (less than 1 second per iteration)
 Threads    : 17

                  Objective                Residual
Iter       Primal          Dual         Primal    Dual     Compl     Time
   0  -1.12289208e+17  3.51291905e+12  1.21e+10 5.68e+04  3.26e+11    29s
   1  -2.37631750e+16  6.35028799e+12  2.56e+09 4.75e+05  6.95e+10    29s
   2  -3.44597002e+15  7.14204912e+12  3.74e+08 1.69e-09  1.04e+10    30s
   3  -9.18347959e+13  4.43126280e+12  9.96e+06 1.51e-09  2.79e+08    31s
   4  -7.39924750e+13  4.17488885e+12  8.03e+06 1.51e-09  2.25e+08    31s
   5  -5.22691139e+13  2.43936185e+12  5.67e+06 1.40e-09  1.59e+08    32s
   6  -2.79334003e+13  2.18135853e+12  3.03e+06 1.16e-09  8.56e+07    32s
   7  -1.16393278e+13  9.95996193e+11  1.26e+06 1.07e-08  3.62e+07    33s
   8  -2.07302694e+12  7.91730082e+11  2.25e+05 7.22e-09  6.84e+06    33s
   9  -2.43027505e+11  5.95622591e+11  2.65e+04 4.42e-09  1.08e+06    34s
  10  -1.05457018e+11  3.81747187e+11  1.16e+04 2.21e-09  5.20e+05    34s
  11  -4.58069553e+10  3.08518025e+11  5.15e+03 1.92e-09  3.05e+05    35s
  12  -1.92085478e+10  1.73234375e+11  2.28e+03 5.09e-09  1.49e+05    36s
  13  -2.62276570e+09  5.57757531e+10  4.94e+02 2.59e-09  4.05e+04    36s
  14  -1.53284359e+08  3.49012323e+10  2.37e+02 3.61e-09  2.33e+04    37s
  15   5.97795703e+08  2.46088956e+10  1.60e+02 3.10e-09  1.59e+04    37s
  16   1.40019408e+09  1.28694281e+10  7.74e+01 1.48e-08  7.64e+03    38s
  17   1.80674430e+09  9.34209132e+09  3.63e+01 1.98e-08  4.86e+03    38s
  18   1.88023275e+09  7.74812784e+09  2.91e+01 1.81e-08  3.80e+03    39s
  19   1.95812992e+09  6.52186281e+09  2.18e+01 2.24e-08  2.96e+03    39s
  20   2.01676847e+09  5.19084702e+09  1.70e+01 2.23e-08  2.08e+03    40s
  21   2.05208670e+09  4.44944162e+09  1.40e+01 2.11e-08  1.58e+03    41s
  22   2.09770375e+09  3.56773551e+09  1.06e+01 3.73e-08  9.95e+02    41s
  23   2.16274915e+09  3.36746328e+09  5.74e+00 2.73e-08  7.72e+02    42s
  24   2.17916681e+09  3.14209783e+09  4.32e+00 3.47e-08  6.10e+02    43s
  25   2.19689129e+09  2.99039700e+09  3.00e+00 2.85e-08  4.93e+02    43s
  26   2.21349473e+09  2.73381179e+09  1.81e+00 3.47e-08  3.17e+02    44s
  27   2.21700596e+09  2.60077880e+09  1.61e+00 3.30e-08  2.34e+02    44s
  28   2.22090461e+09  2.57305653e+09  1.37e+00 3.57e-08  2.13e+02    45s
  29   2.22747057e+09  2.51812180e+09  1.07e+00 4.04e-08  1.75e+02    46s
  30   2.23479939e+09  2.43576427e+09  8.07e-01 3.07e-08  1.20e+02    46s
  31   2.23792190e+09  2.40827305e+09  6.99e-01 3.60e-08  1.02e+02    47s
  32   2.24418750e+09  2.36319614e+09  5.17e-01 3.39e-08  7.06e+01    48s
  33   2.24436286e+09  2.35807365e+09  5.07e-01 4.47e-08  6.74e+01    48s
  34   2.24985626e+09  2.34603774e+09  3.41e-01 3.21e-08  5.67e+01    49s
  35   2.25563748e+09  2.32427501e+09  2.05e-01 3.54e-08  4.03e+01    50s
  36   2.25760092e+09  2.31152828e+09  1.66e-01 3.83e-08  3.16e+01    50s
  37   2.25828046e+09  2.30571922e+09  1.56e-01 4.54e-08  2.78e+01    51s
  38   2.26210477e+09  2.29802667e+09  1.09e-01 3.63e-08  2.10e+01    52s
  39   2.26426722e+09  2.29157046e+09  8.68e-02 4.50e-08  1.60e+01    52s
  40   2.26475901e+09  2.28892123e+09  8.25e-02 3.98e-08  1.41e+01    53s
  41   2.26724642e+09  2.28609837e+09  5.87e-02 4.77e-08  1.10e+01    54s
  42   2.26769823e+09  2.28353057e+09  5.29e-02 5.96e-08  9.27e+00    54s
  43   2.26901077e+09  2.28190931e+09  4.12e-02 5.22e-08  7.55e+00    55s
  44   2.26981804e+09  2.28016001e+09  3.43e-02 5.99e-08  6.05e+00    56s
  45   2.27074603e+09  2.27926603e+09  2.68e-02 4.55e-08  4.98e+00    56s
  46   2.27171408e+09  2.27803981e+09  1.94e-02 5.75e-08  3.70e+00    57s
  47   2.27195194e+09  2.27759837e+09  1.77e-02 5.26e-08  3.30e+00    57s
  48   2.27259165e+09  2.27681552e+09  1.30e-02 4.88e-08  2.47e+00    58s
  49   2.27294146e+09  2.27623009e+09  1.06e-02 4.41e-08  1.93e+00    59s
  50   2.27331094e+09  2.27564552e+09  8.09e-03 4.23e-08  1.37e+00    59s
  51   2.27377532e+09  2.27531622e+09  4.96e-03 3.71e-08  9.03e-01    60s
  52   2.27403847e+09  2.27503517e+09  3.22e-03 3.92e-08  5.84e-01    61s
  53   2.27426910e+09  2.27489382e+09  1.70e-03 3.84e-08  3.66e-01    61s
  54   2.27433294e+09  2.27473834e+09  1.29e-03 4.47e-08  2.38e-01    62s
  55   2.27441487e+09  2.27467250e+09  7.76e-04 5.22e-08  1.51e-01    62s
  56   2.27445190e+09  2.27462263e+09  5.47e-04 4.47e-08  1.00e-01    63s
  57   2.27449216e+09  2.27459264e+09  3.03e-04 4.54e-08  5.90e-02    63s
  58   2.27451061e+09  2.27457240e+09  1.94e-04 4.47e-08  3.63e-02    64s
  59   2.27452787e+09  2.27456608e+09  9.27e-05 4.78e-08  2.24e-02    65s
  60   2.27453102e+09  2.27456326e+09  7.52e-05 5.22e-08  1.89e-02    65s
  61   2.27453642e+09  2.27455415e+09  4.46e-05 5.80e-08  1.04e-02    66s
  62   2.27453780e+09  2.27455235e+09  3.72e-05 4.70e-08  8.54e-03    66s
  63   2.27453943e+09  2.27455141e+09  2.84e-05 5.06e-08  7.02e-03    67s
  64   2.27454340e+09  2.27454907e+09  6.55e-06 4.45e-08  3.31e-03    67s
  65   2.27454420e+09  2.27454648e+09  2.52e-06 4.70e-08  1.32e-03    68s
  66   2.27454446e+09  2.27454540e+09  1.27e-06 5.27e-08  5.53e-04    68s
  67   2.27454459e+09  2.27454508e+09  5.62e-07 5.96e-08  2.82e-04    69s
  68   2.27454468e+09  2.27454491e+09  1.59e-07 4.66e-08  1.37e-04    70s
  69   2.27454472e+09  2.27454472e+09  2.97e-08 5.31e-08  4.97e-06    70s
  70   2.27454472e+09  2.27454472e+09  7.66e-08 4.72e-08  2.37e-09    71s

Barrier solved model in 70 iterations and 70.84 seconds (69.06 work units)
Optimal objective 2.27454472e+09


Root crossover log...

   24015 DPushes remaining with DInf 0.0000000e+00                71s
       0 DPushes remaining with DInf 0.0000000e+00                74s

    1267 PPushes remaining with PInf 5.6314297e-05                74s
       0 PPushes remaining with PInf 0.0000000e+00                74s

  Push phase complete: Pinf 0.0000000e+00, Dinf 1.5189717e-01     74s


Root simplex log...

Iteration    Objective       Primal Inf.    Dual Inf.      Time
   25282    2.2745447e+09   0.000000e+00   1.518971e-01     74s
   25284    2.2745447e+09   0.000000e+00   0.000000e+00     74s
Concurrent spin time: 0.00s

Solved with barrier
   25333    2.2745447e+09   0.000000e+00   0.000000e+00     74s
Extra simplex iterations after uncrush: 49

Root relaxation: objective 2.274545e+09, 25333 iterations, 53.78 seconds (43.70 work units)
Total elapsed time = 76.08s

    Nodes    |    Current Node    |     Objective Bounds      |     Work
 Expl Unexpl |  Obj  Depth IntInf | Incumbent    BestBd   Gap | It/Node Time

     0     0 2.2745e+09    0 1514          - 2.2745e+09      -     -   80s
     0     0 2.2744e+09    0 1431          - 2.2744e+09      -     -  365s
     0     0 2.2743e+09    0 1430          - 2.2743e+09      -     -  659s
     0     0 2.2738e+09    0 1415          - 2.2738e+09      -     -  947s
     0     0 2.2738e+09    0 1422          - 2.2738e+09      -     - 1040s
     0     0 2.2738e+09    0 1406          - 2.2738e+09      -     - 1053s
     0     0 2.2737e+09    0 1424          - 2.2737e+09      -     - 1332s
     0     0 2.2737e+09    0 1420          - 2.2737e+09      -     - 1407s
     0     0 2.2737e+09    0 1429          - 2.2737e+09      -     - 1440s
     0     0 2.2737e+09    0 1464          - 2.2737e+09      -     - 1446s
     0     0 2.2737e+09    0 1426          - 2.2737e+09      -     - 1602s
     0     0 2.2737e+09    0 1428          - 2.2737e+09      -     - 1859s
     0     0 2.2737e+09    0 1444          - 2.2737e+09      -     - 1874s
     0     0 2.2736e+09    0 1430          - 2.2736e+09      -     - 2002s
     0     0 2.2736e+09    0 1435          - 2.2736e+09      -     - 2063s
     0     0 2.2736e+09    0 1425          - 2.2736e+09      -     - 2079s
     0     0 2.2736e+09    0 1391          - 2.2736e+09      -     - 2160s
     0     0 2.2736e+09    0 1409          - 2.2736e+09      -     - 2198s
     0     0 2.2736e+09    0 1416          - 2.2736e+09      -     - 2216s
     0     0 2.2736e+09    0 1367          - 2.2736e+09      -     - 2250s
     0     0 2.2736e+09    0 1412          - 2.2736e+09      -     - 2279s
     0     0 2.2736e+09    0 1417          - 2.2736e+09      -     - 2296s
     0     0 2.2736e+09    0 1424          - 2.2736e+09      -     - 2300s
     0     0 2.2736e+09    0 1357          - 2.2736e+09      -     - 2343s
     0     0 2.2736e+09    0 1430          - 2.2736e+09      -     - 2369s
     0     0 2.2736e+09    0 1475          - 2.2736e+09      -     - 2384s
     0     0 2.2736e+09    0 1463          - 2.2736e+09      -     - 2390s
     0     0 2.2736e+09    0 1399          - 2.2736e+09      -     - 2420s
     0     0 2.2736e+09    0 1378          - 2.2736e+09      -     - 3169s
     0     2 2.2736e+09    0 1374          - 2.2736e+09      -     - 4532s
     1     4 2.2736e+09    1 1372          - 2.2736e+09      - 16723 4694s
     3     8 2.2736e+09    2 1354          - 2.2736e+09      -  9816 4895s
     7    16 2.2736e+09    3 1305          - 2.2736e+09      -  7690 5176s
    15    32 2.2736e+09    4 1320          - 2.2736e+09      -  6393 5677s
    31    52 2.2736e+09    5 1492          - 2.2736e+09      - 18190 10790s

Cutting planes:
  Cover: 49
  Implied bound: 64
  Clique: 2
  MIR: 116
  Flow cover: 208
  GUB cover: 8
  Network: 14
  RLT: 29
  Relax-and-lift: 31

Explored 51 nodes (6640254 simplex iterations) in 10800.22 seconds (10097.56 work units)
Thread count was 20 (of 40 available processors)

Solution count 0

Time limit reached
Best objective -, best bound 2.273578122890e+09, gap -
IIS computation: initial model status unknown, solving to determine model status
Presolve removed 47765 rows and 58055 columns (presolve time = 5s) ...
Presolve removed 49445 rows and 58055 columns (presolve time = 10s) ...
Presolve removed 49445 rows and 58055 columns (presolve time = 15s) ...
Presolve removed 49365 rows and 57975 columns
Presolve time: 18.44s
Presolved: 31281 rows, 863775 columns, 4699867 nonzeros
Variable types: 2219 continuous, 861556 integer (861519 binary)
Deterministic concurrent LP optimizer: primal simplex, dual simplex, and barrier
Showing barrier log only...

Root barrier log...

Ordering time: 3.26s

Barrier statistics:
 AA' NZ     : 2.246e+06
 Factor NZ  : 2.101e+07 (roughly 500 MB of memory)
 Factor Ops : 4.933e+10 (less than 1 second per iteration)
 Threads    : 18

                  Objective                Residual
Iter       Primal          Dual         Primal    Dual     Compl     Time
   0  -0.00000000e+00  2.79079400e+05  1.21e+10 0.00e+00  2.49e+04    30s
   1  -0.00000000e+00  4.85649001e+05  2.56e+09 3.46e-02  5.28e+03    31s
   2  -0.00000000e+00  5.38720994e+05  1.41e+08 1.25e-16  2.97e+02    31s
   3  -0.00000000e+00  2.91370651e+05  9.69e+06 1.25e-16  2.06e+01    32s
   4  -0.00000000e+00  2.70377815e+05  7.10e+06 1.16e-16  1.47e+01    32s
   5  -0.00000000e+00  1.66876891e+05  4.46e+06 9.50e-17  7.75e+00    33s
   6  -0.00000000e+00  1.15966125e+05  1.44e+06 6.85e-17  2.23e+00    33s
   7  -0.00000000e+00  6.60203930e+04  7.84e+05 6.69e-17  1.07e+00    34s
   8  -0.00000000e+00  5.44640024e+04  5.61e+05 5.91e-17  7.14e-01    34s
   9  -0.00000000e+00  2.60278788e+04  5.16e+04 1.81e-11  6.09e-02    35s
  10  -0.00000000e+00  9.40168954e+03  1.05e+04 2.29e-16  1.11e-02    36s
  11  -0.00000000e+00  4.87715221e+03  2.01e+03 3.71e-08  3.66e-03    37s
  12  -0.00000000e+00  1.83417958e+03  7.54e+02 3.57e-08  1.31e-03    37s
  13  -0.00000000e+00  1.04104339e+03  4.29e+02 2.93e-08  7.32e-04    38s
  14  -0.00000000e+00  7.37196874e+02  2.54e+02 2.53e-08  5.02e-04    38s
  15  -0.00000000e+00  3.66571720e+02  1.36e+02 1.89e-08  2.51e-04    39s
  16  -0.00000000e+00  1.18525327e+02  8.97e+01 1.62e-08  9.36e-05    40s
  17  -0.00000000e+00  7.68803799e+01  2.98e+01 2.09e-08  5.27e-05    41s
  18  -0.00000000e+00  4.46197076e+01  2.65e+01 1.96e-08  3.30e-05    41s
  19  -0.00000000e+00  3.82277495e+01  2.28e+01 2.01e-08  2.82e-05    42s
  20  -0.00000000e+00  2.04881155e+01  1.99e+01 1.95e-08  1.69e-05    42s
  21  -0.00000000e+00  1.42643494e+01  1.35e+01 2.64e-08  1.16e-05    43s
  22  -0.00000000e+00  1.05893677e+01  5.02e+00 4.08e-08  7.31e-06    44s
  23  -0.00000000e+00  4.71839251e+00  1.68e+00 4.62e-08  3.07e-06    45s
  24  -0.00000000e+00  1.60596183e+00  1.60e-01 2.09e-08  9.66e-07    46s
  25  -0.00000000e+00  1.92669783e-01  1.17e-01 3.68e-09  1.21e-07    46s
  26  -0.00000000e+00  3.97846435e-03  8.64e-04 1.19e-10  2.46e-09    47s
  27  -0.00000000e+00  7.73261672e-07  3.26e-06 3.66e-14  4.75e-13    48s
  28  -0.00000000e+00  5.42830521e-10  5.54e-09 3.20e-16  8.08e-16    49s

Barrier solved model in 28 iterations and 49.03 seconds (54.23 work units)
Optimal objective -0.00000000e+00

  Building initial crossover basis                                55s
  Building initial crossover basis                                60s
  Building initial crossover basis                                65s
  Building initial crossover basis                                70s
  Building initial crossover basis                                76s
  Building initial crossover basis                                81s
  Building initial crossover basis                                85s

Root crossover log...

   24096 DPushes remaining with DInf 6.0663896e+01                90s
       0 DPushes remaining with DInf 0.0000000e+00                91s

     614 PPushes remaining with PInf 1.8836428e-02                91s
       0 PPushes remaining with PInf 0.0000000e+00                91s

  Push phase complete: Pinf 0.0000000e+00, Dinf 0.0000000e+00     91s


Root simplex log...

Iteration    Objective       Primal Inf.    Dual Inf.      Time
    2399   -0.0000000e+00   0.000000e+00   0.000000e+00     91s
Concurrent spin time: 0.01s

Solved with barrier
    2399   -0.0000000e+00   0.000000e+00   0.000000e+00     91s

Root relaxation: objective -0.000000e+00, 2399 iterations, 68.85 seconds (64.95 work units)

    Nodes    |    Current Node    |     Objective Bounds      |     Work
 Expl Unexpl |  Obj  Depth IntInf | Incumbent    BestBd   Gap | It/Node Time

     0     0   -0.00000    0 1667          -   -0.00000      -     -  594s
     0     0   -0.00000    0 1132          -   -0.00000      -     - 1790s
     0     0   -0.00000    0 1064          -   -0.00000      -     - 2713s
     0     0   -0.00000    0   41          -   -0.00000      -     - 3477s
     0     0   -0.00000    0   71          -   -0.00000      -     - 3539s
     0     0   -0.00000    0   40          -   -0.00000      -     - 3658s
     0     0   -0.00000    0  139          -   -0.00000      -     - 3872s
     0     0   -0.00000    0  211          -   -0.00000      -     - 4418s
     0     0   -0.00000    0  257          -   -0.00000      -     - 4449s
     0     0   -0.00000    0   34          -   -0.00000      -     - 4759s
     0     0   -0.00000    0  239          -   -0.00000      -     - 5022s
     0     0   -0.00000    0   41          -   -0.00000      -     - 5337s
H    0     0                      -0.0000000   -0.00000  0.00%     - 5419s
     0     0   -0.00000    0   41   -0.00000   -0.00000  0.00%     - 5419s

Cutting planes:
  Cover: 19
  Implied bound: 20
  Clique: 11
  MIR: 24
  StrongCG: 1
  Flow cover: 42
  GUB cover: 7
  Network: 25
  RLT: 6
  Relax-and-lift: 9

Explored 1 nodes (2300698 simplex iterations) in 5419.85 seconds (5427.39 work units)
Thread count was 20 (of 40 available processors)

Solution count 1: -0 
No other solutions better than -0

Optimal solution found (tolerance 1.00e-04)
Best objective -0.000000000000e+00, best bound -0.000000000000e+00, gap 0.0000%
IIS runtime: 5419.91 seconds (5427.39 work units)
